GLPSOL--GLPK LP/MIP Solver 5.0
Parameter(s) specified in the command line:
 --lp ../modeles/10_169.lp --log 10_169.log
Reading problem data from '../modeles/10_169.lp'...
1731 rows, 3400 columns, 11880 non-zeros
1690 integer variables, all of which are binary
5147 lines were read
GLPK Integer Optimizer 5.0
1731 rows, 3400 columns, 11880 non-zeros
1690 integer variables, all of which are binary
Preprocessing...
1660 constraint coefficient(s) were reduced
1731 rows, 3390 columns, 11870 non-zeros
1690 integer variables, all of which are binary
Scaling...
 A: min|aij| =  1.401e-04  max|aij| =  4.000e+00  ratio =  2.856e+04
GM: min|aij| =  7.692e-02  max|aij| =  1.300e+01  ratio =  1.690e+02
EQ: min|aij| =  5.917e-03  max|aij| =  1.000e+00  ratio =  1.690e+02
2N: min|aij| =  4.482e-03  max|aij| =  1.771e+00  ratio =  3.951e+02
Constructing initial basis...
Size of triangular part is 1731
Solving LP relaxation...
GLPK Simplex Optimizer 5.0
1731 rows, 3390 columns, 11870 non-zeros
      0: obj =   2.000000000e+01 inf =   4.950e+01 (21)
    129: obj =   4.993172269e-01 inf =   0.000e+00 (0)
*   411: obj =  -3.161185708e+00 inf =   2.153e-15 (0)
OPTIMAL LP SOLUTION FOUND
Integer optimization begins...
Long-step dual simplex will be used
+   411: mip =     not found yet >=              -inf        (1; 0)
+   465: >>>>>  -3.161185708e+00 >=  -3.161185708e+00 < 0.1% (54; 0)
+   465: mip =  -3.161185708e+00 >=     tree is empty   0.0% (0; 107)
INTEGER OPTIMAL SOLUTION FOUND
Time used:   0.2 secs
Memory used: 5.0 Mb (5254730 bytes)
